NAME : rbg035a.tw.2144.tour
COMMENT : Length = 2144
COMMENT : Found by LKH [Keld Helsgaun] Thu Jan 16 16:40:35 2020
TYPE : TOUR
DIMENSION : 36
TOUR_SECTION
1
6
5
3
4
2
10
8
7
12
11
9
15
18
21
14
13
17
16
22
20
19
24
27
26
23
25
31
29
30
28
33
34
35
32
36
-1
EOF
